NAME : coverage_path
TYPE : ATSP
DIMENSION : 5
EDGE_WEIGHT_TYPE : EXPLICIT
EDGE_WEIGHT_FORMAT : FULL_MATRIX
EDGE_WEIGHT_SECTION
0 146 2603 3380 3118 
0 0 100000 140000 100000 
0 100000 0 296 129 
0 140000 296 0 151 
0 100000 129 151 0 
EOF